%%%mzn-stat: initTime=0.01391491
%%%mzn-stat: objective=182
%%%mzn-stat: nodes=5656
%%%mzn-stat: restarts=0
%%%mzn-stat: peakDepth=683
%%%mzn-stat: solveTime=2.711346124
%%%mzn-stat: variables=1344
%%%mzn-stat: propagators=1029
%%%mzn-stat: failures=4263
%%%mzn-stat: propagations=247070
%%%mzn-stat: nogoods=4263
%%%mzn-stat: AverageConflictSize=17.063335679099225
%%%mzn-stat: NumUnitNogoodsLearned=181
%%%mzn-stat: AverageLearnedNogoodLength=45.13488153882243
%%%mzn-stat: AverageBacktrackAmount=0
%%%mzn-stat: AverageLbd=23.172882946281963
%%%mzn-stat-end
maxleg = 182;
succ = array1d(1..100,[98, 27, 45, 85, 76, 67, 49, 56, 61, 42, 75, 84, 18, 51, 50, 62, 4, 57, 35, 80, 99, 52, 70, 5, 22, 41, 87, 32, 9, 63, 95, 40, 15, 93, 59, 10, 58, 96, 71, 3, 81, 48, 20, 33, 17, 54, 23, 7, 73, 13, 28, 6, 14, 86, 29, 68, 92, 100, 34, 24, 44, 78, 77, 16, 88, 55, 89, 97, 43, 21, 37, 36, 39, 91, 74, 94, 47, 19, 25, 30, 82, 1, 72, 83, 11, 65, 12, 26, 69, 64, 90, 46, 8, 53, 38, 79, 31, 60, 2, 66]);
% time elapsed: 5.68 s
----------
==========
% time elapsed: 5.68 s
%%%mzn-stat: initTime=0.01391491
%%%mzn-stat: objective=182
%%%mzn-stat: nodes=5656
%%%mzn-stat: restarts=0
%%%mzn-stat: peakDepth=683
%%%mzn-stat: solveTime=2.7113503789999998
%%%mzn-stat: variables=1344
%%%mzn-stat: propagators=1029
%%%mzn-stat: failures=4263
%%%mzn-stat: propagations=247070
%%%mzn-stat: nogoods=4263
%%%mzn-stat: AverageConflictSize=17.063335679099225
%%%mzn-stat: NumUnitNogoodsLearned=181
%%%mzn-stat: AverageLearnedNogoodLength=45.13488153882243
%%%mzn-stat: AverageBacktrackAmount=0
%%%mzn-stat: AverageLbd=23.172882946281963
%%%mzn-stat-end
